c FILE /home/rafael/Documents/HappySet/MIHS/inputs/happygen/output/graph_d_regular_k10_p0.4_v50_20241127_082703.txt
c SOURCE This is a d-regular graph formed for the happy graph colouring problem.
c DESCRIPTION It was generated using the problem generator of Rhyd Lewis
c
c GRAPH STATS
c Seed                             = 123430139
c Number of Nodes                  = 50
c Number of colours k              = 10
c Number of pre-assignments        = 20
c Degree of all vertices           = 6
c Density                          = 0.122449
c 
c The degrees of nodes 1 to 50, respectively, are as follows 
c [6, 6, 6, 6, 6, 6, 6, 6, 6, 6, 6, 6, 6, 6, 6, 6, 6, 6, 6, 6, 6, 6, 6, 6, 6, 6, 
c  6, 6, 6, 6, 6, 6, 6, 6, 6, 6, 6, 6, 6, 6, 6, 6, 6, 6, 6, 6, 6, 6, 6, 6] 
c  
p edge 50 150 10
e 1 15
e 1 30
e 1 35
e 1 39
e 1 40
e 1 48
e 2 4
e 2 21
e 2 27
e 2 32
e 2 42
e 2 45
e 3 15
e 3 20
e 3 26
e 3 33
e 3 36
e 3 42
e 4 38
e 4 39
e 4 40
e 4 42
e 4 46
e 5 9
e 5 23
e 5 24
e 5 31
e 5 36
e 5 50
e 6 9
e 6 19
e 6 21
e 6 34
e 6 36
e 6 50
e 7 19
e 7 23
e 7 25
e 7 26
e 7 28
e 7 29
e 8 13
e 8 14
e 8 31
e 8 33
e 8 40
e 8 50
e 9 10
e 9 16
e 9 38
e 9 43
e 10 11
e 10 18
e 10 33
e 10 37
e 10 49
e 11 24
e 11 25
e 11 29
e 11 33
e 11 34
e 12 14
e 12 16
e 12 18
e 12 33
e 12 37
e 12 47
e 13 22
e 13 32
e 13 39
e 13 44
e 13 46
e 14 17
e 14 35
e 14 45
e 14 47
e 15 21
e 15 25
e 15 28
e 15 47
e 16 19
e 16 20
e 16 28
e 16 39
e 17 18
e 17 24
e 17 26
e 17 43
e 17 45
e 18 22
e 18 25
e 18 49
e 19 27
e 19 28
e 19 41
e 20 22
e 20 31
e 20 36
e 20 48
e 21 24
e 21 27
e 21 29
e 22 31
e 22 34
e 22 37
e 23 40
e 23 46
e 23 47
e 23 49
e 24 29
e 24 30
e 25 44
e 25 48
e 26 36
e 26 43
e 26 44
e 27 30
e 27 35
e 27 41
e 28 29
e 28 46
e 29 34
e 30 42
e 30 49
e 30 50
e 31 37
e 31 40
e 32 34
e 32 44
e 32 47
e 32 49
e 33 38
e 34 35
e 35 38
e 35 43
e 36 42
e 37 41
e 37 44
e 38 45
e 38 50
e 39 41
e 39 43
e 40 48
e 41 43
e 41 48
e 42 46
e 44 49
e 45 48
e 45 50
e 46 47
n 2 2
n 5 3
n 9 3
n 11 6
n 13 9
n 15 5
n 17 7
n 19 8
n 20 4
n 26 7
n 33 6
n 34 6
n 35 6
n 37 1
n 39 9
n 42 2
n 47 5
n 48 4
n 49 10
n 50 3
